
#######################################################################
#
#                 Cambridge Crystallographic Data Centre
#                                CCDC
#
#######################################################################
#
# If this CIF has been generated from an entry in the Cambridge
# Structural Database, then it will include bibliographic, chemical,
# crystal, experimental, refinement or atomic coordinate data resulting
# from the CCDC's data processing and validation procedures.
#
#######################################################################

data_CSD_CIF_AJEPIP
_audit_creation_date 2010-03-08
_audit_creation_method CSD-ConQuest-V1
_database_code_CSD AJEPIP
_database_code_depnum_ccdc_archive 'CCDC 756546'
_chemical_formula_sum 'C27 H32 Fe1 N4 O4'
_chemical_formula_moiety
;
C25 H29 Fe1 N3 O4,C2 H3 N1
;
_journal_coden_Cambridge 95
_journal_year 2008
_journal_page_first 1186
_journal_name_full 'Izv.Akad.Nauk SSSR,Ser.Khim.(Russ.)(Russ.Chem.Bull.) '
loop_
_publ_author_name
"K.L.Tokarev"
"M.A.Kiskin"
"A.A.Sidorov"
"G.G.Aleksandrov"
"V.N.Ikorsky"
"I.P.Suzdalev"
"V.M.Novotortsev"
"I.L.Eremenko"
_chemical_name_systematic
;
(2,2':6',2''-Terpyridine)-bis(trimethylacetato-O)-iron(ii) acetonitrile 
solvate
;
_cell_volume   1368.130
_exptl_crystal_colour 'violet'
_exptl_crystal_density_diffrn 1.292
_exptl_special_details
;
magnetic study
Isostructural with the Co analogue

;
_exptl_crystal_description 'needle'
_diffrn_ambient_temperature 120
#These two values have been output from a single CSD field.
_refine_ls_R_factor_gt 0.0727
_refine_ls_wR_factor_gt 0.0727
_symmetry_cell_setting triclinic
_symmetry_space_group_name_H-M 'P -1'
_symmetry_Int_Tables_number 2
loop_
_symmetry_equiv_pos_site_id
_symmetry_equiv_pos_as_xyz
1 x,y,z
2 -x,-y,-z
_cell_length_a 10.005(4)
_cell_length_b 10.394(4)
_cell_length_c 14.408(5)
_cell_angle_alpha 70.583(13)
_cell_angle_beta 89.212(14)
_cell_angle_gamma 76.099(11)
_cell_formula_units_Z 2
loop_
_atom_type_symbol
_atom_type_radius_bond
C 0.68
H 0.23
Fe 1.34
N 0.68
O 0.68
loop_
_atom_site_label
_atom_site_type_symbol
_atom_site_fract_x
_atom_site_fract_y
_atom_site_fract_z
Fe1 Fe 0.14853(6) 0.31426(6) 0.30538(5)
O1 O 0.2991(3) 0.4086(3) 0.2336(2)
O2 O 0.3045(3) 0.4177(3) 0.3841(2)
O3 O 0.0965(3) 0.2901(3) 0.1753(2)
O4 O -0.0625(3) 0.2215(3) 0.2751(2)
N1 N 0.2610(4) 0.1025(3) 0.3974(3)
N2 N 0.0560(3) 0.2706(3) 0.4440(2)
N3 N -0.0088(3) 0.5058(3) 0.2945(2)
C1 C 0.3412(4) 0.4530(4) 0.2973(3)
C2 C 0.4329(4) 0.5560(4) 0.2633(3)
C3 C 0.4803(5) 0.5971(5) 0.3481(3)
H1 H 0.53420 0.51260 0.39950
H2 H 0.39940 0.64100 0.37600
H3 H 0.53760 0.66390 0.32300
C4 C 0.5606(5) 0.4886(4) 0.2189(4)
H4 H 0.61470 0.40360 0.26970
H5 H 0.61760 0.55580 0.19450
H6 H 0.53070 0.46340 0.16420
C5 C 0.3485(5) 0.6904(4) 0.1845(3)
H7 H 0.40560 0.75770 0.16110
H8 H 0.26730 0.73240 0.21310
H9 H 0.31870 0.66670 0.12900
C6 C -0.0151(4) 0.2480(4) 0.1923(3)
C7 C -0.0930(5) 0.2389(4) 0.1056(3)
C8 C -0.2069(5) 0.1624(5) 0.1398(3)
H10 H -0.16590 0.06560 0.18290
H11 H -0.25680 0.16100 0.08230
H12 H -0.27120 0.21170 0.17620
C9 C -0.1596(5) 0.3928(4) 0.0383(3)
H13 H -0.22410 0.44070 0.07520
H14 H -0.20950 0.39180 -0.01940
H15 H -0.08720 0.44290 0.01650
C10 C 0.0074(5) 0.1629(5) 0.0481(4)
H16 H 0.04860 0.06580 0.09070
H17 H 0.08040 0.21210 0.02650
H18 H -0.04260 0.16210 -0.00960
C11 C 0.3741(4) 0.0269(4) 0.3723(3)
H19 H 0.40750 0.06580 0.30970
C12 C 0.4451(5) -0.1063(4) 0.4335(3)
H20 H 0.52510 -0.15770 0.41330
C13 C 0.3961(5) -0.1620(4) 0.5246(4)
H21 H 0.44290 -0.25220 0.56870
C14 C 0.2777(4) -0.0846(4) 0.5508(3)
H22 H 0.24080 -0.12230 0.61220
C15 C 0.2147(4) 0.0467(4) 0.4872(3)
C16 C 0.0912(4) 0.1410(4) 0.5103(3)
C17 C 0.0168(4) 0.1005(4) 0.5934(3)
H23 H 0.04090 0.00710 0.63940
C18 C -0.0935(4) 0.2015(4) 0.6062(3)
H24 H -0.14590 0.17740 0.66200
C19 C -0.1284(4) 0.3373(4) 0.5385(3)
H25 H -0.20170 0.40770 0.54850
C20 C -0.0537(4) 0.3676(4) 0.4561(3)
C21 C -0.0828(4) 0.5051(4) 0.3741(3)
C22 C -0.1808(4) 0.6242(4) 0.3763(3)
H26 H -0.22970 0.62300 0.43350
C23 C -0.2054(4) 0.7446(4) 0.2932(3)
H27 H -0.27220 0.82700 0.29300
C24 C -0.1331(5) 0.7452(4) 0.2108(3)
H28 H -0.14960 0.82640 0.15300
C25 C -0.0358(4) 0.6230(4) 0.2155(3)
H29 H 0.01470 0.62260 0.15920
N4 N -0.4818(5) -0.0118(5) 0.1440(4)
C26 C -0.6142(5) 0.2454(5) 0.0541(4)
H30 H -0.62220 0.26330 -0.01700
H31 H -0.56430 0.30870 0.06720
H32 H -0.70660 0.26230 0.07820
C27 C -0.5390(5) 0.0992(6) 0.1049(4)
loop_
_geom_bond_atom_site_label_1
_geom_bond_atom_site_label_2
_geom_bond_distance
_geom_bond_site_symmetry_1
_geom_bond_site_symmetry_2
Fe1 O1 2.072 1_555 1_555
O1 C1 1.272 1_555 1_555
O2 C1 1.257 1_555 1_555
O3 Fe1 2.061 1_555 1_555
O4 C6 1.246 1_555 1_555
N1 Fe1 2.186 1_555 1_555
N2 Fe1 2.145 1_555 1_555
N3 Fe1 2.182 1_555 1_555
C1 C2 1.529 1_555 1_555
C2 C3 1.536 1_555 1_555
C3 H1 0.981 1_555 1_555
H2 C3 0.980 1_555 1_555
H3 C3 0.980 1_555 1_555
C4 C2 1.542 1_555 1_555
H4 C4 0.980 1_555 1_555
H5 C4 0.979 1_555 1_555
H6 C4 0.980 1_555 1_555
C5 C2 1.536 1_555 1_555
H7 C5 0.979 1_555 1_555
H8 C5 0.980 1_555 1_555
H9 C5 0.981 1_555 1_555
C6 O3 1.286 1_555 1_555
C7 C6 1.522 1_555 1_555
C8 C7 1.527 1_555 1_555
H10 C8 0.980 1_555 1_555
H11 C8 0.979 1_555 1_555
H12 C8 0.981 1_555 1_555
C9 C7 1.555 1_555 1_555
H13 C9 0.979 1_555 1_555
H14 C9 0.980 1_555 1_555
H15 C9 0.980 1_555 1_555
C10 C7 1.533 1_555 1_555
H16 C10 0.980 1_555 1_555
H17 C10 0.979 1_555 1_555
H18 C10 0.980 1_555 1_555
C11 N1 1.334 1_555 1_555
H19 C11 0.950 1_555 1_555
C12 C11 1.390 1_555 1_555
H20 C12 0.950 1_555 1_555
C13 C12 1.383 1_555 1_555
H21 C13 0.950 1_555 1_555
C14 C13 1.387 1_555 1_555
H22 C14 0.950 1_555 1_555
C15 N1 1.356 1_555 1_555
C16 N2 1.333 1_555 1_555
C17 C16 1.398 1_555 1_555
H23 C17 0.951 1_555 1_555
C18 C17 1.386 1_555 1_555
H24 C18 0.950 1_555 1_555
C19 C18 1.387 1_555 1_555
H25 C19 0.950 1_555 1_555
C20 N2 1.353 1_555 1_555
C21 N3 1.355 1_555 1_555
C22 C21 1.392 1_555 1_555
H26 C22 0.951 1_555 1_555
C23 C22 1.387 1_555 1_555
H27 C23 0.951 1_555 1_555
C24 C23 1.381 1_555 1_555
H28 C24 0.950 1_555 1_555
C25 N3 1.335 1_555 1_555
H29 C25 0.950 1_555 1_555
N4 C27 1.112 1_555 1_555
C26 H30 0.979 1_555 1_555
H31 C26 0.980 1_555 1_555
H32 C26 0.980 1_555 1_555
C27 C26 1.462 1_555 1_555
C14 C15 1.368 1_555 1_555
C15 C16 1.491 1_555 1_555
C19 C20 1.381 1_555 1_555
C20 C21 1.487 1_555 1_555
C24 C25 1.384 1_555 1_555
#END
