
#######################################################################
#
#                 Cambridge Crystallographic Data Centre
#                                CCDC
#
#######################################################################
#
# If this CIF has been generated from an entry in the Cambridge
# Structural Database, then it will include bibliographic, chemical,
# crystal, experimental, refinement or atomic coordinate data resulting
# from the CCDC's data processing and validation procedures.
#
#######################################################################

data_CSD_CIF_HASJEQ
_audit_creation_date 1999-05-11
_audit_creation_method CSD-ConQuest-V1
_database_code_CSD HASJEQ
_database_code_depnum_ccdc_archive 'CCDC 104538'
_chemical_formula_sum 'C17 H18 Fe1 N2 O1 S3'
_chemical_formula_moiety
;
C17 H18 Fe1 N2 O1 S3
;
_journal_coden_Cambridge 9
_journal_volume 38
_journal_year 1999
_journal_page_first 459
_journal_name_full 'Inorg.Chem. '
loop_
_publ_author_name
"D.Sellmann"
"J.Utz"
"F.W.Heinemann"
_chemical_name_systematic
;
Carbonyl-(2,2'-bis(2-mercaptophenylamino)diethyl sulfide)-iron(ii)
;
_cell_volume   1835.950
_exptl_crystal_colour 'brown'
_exptl_crystal_density_diffrn 1.514
_exptl_crystal_description 'columns'
_exptl_crystal_preparation 'methanol/THF/diethyl ether'
_diffrn_ambient_temperature 200
#These two values have been output from a single CSD field.
_refine_ls_R_factor_gt 0.0415
_refine_ls_wR_factor_gt 0.0415
_symmetry_cell_setting monoclinic
_symmetry_space_group_name_H-M 'P 21/n'
_symmetry_Int_Tables_number 14
loop_
_symmetry_equiv_pos_site_id
_symmetry_equiv_pos_as_xyz
1 x,y,z
2 1/2+x,1/2-y,1/2+z
3 -x,-y,-z
4 -1/2-x,-1/2+y,-1/2-z
_cell_length_a 8.136(8)
_cell_length_b 11.406(15)
_cell_length_c 19.871(18)
_cell_angle_alpha 90
_cell_angle_beta 95.36(7)
_cell_angle_gamma 90
_cell_formula_units_Z 4
loop_
_atom_type_symbol
_atom_type_radius_bond
C 0.68
H 0.23
Fe 1.34
N 0.68
O 0.68
S 1.02
loop_
_atom_site_label
_atom_site_type_symbol
_atom_site_fract_x
_atom_site_fract_y
_atom_site_fract_z
Fe1 Fe 0.18491(6) 0.10746(5) 0.29985(3)
C1 C 0.2090(5) 0.1919(3) 0.3740(2)
O1 O 0.2212(4) 0.2494(3) 0.42321(15)
S1 S -0.01306(11) 0.00344(9) 0.34979(5)
S2 S 0.39732(12) 0.19124(9) 0.25018(5)
S3 S -0.00325(12) 0.24174(9) 0.25081(5)
N1 N 0.3514(4) -0.0198(3) 0.33717(15)
N2 N 0.1349(4) 0.0094(3) 0.21071(15)
C2 C 0.2963(5) -0.0800(3) 0.3981(2)
C3 C 0.4065(5) -0.1449(4) 0.4420(2)
C4 C 0.3486(5) -0.2065(4) 0.4965(2)
C5 C 0.1818(6) -0.1994(4) 0.5084(2)
C6 C 0.0714(5) -0.1343(4) 0.4644(2)
C7 C 0.1264(5) -0.0747(4) 0.4077(2)
C8 C -0.0143(5) 0.0479(4) 0.1672(2)
C9 C -0.0765(6) -0.0216(4) 0.1125(2)
C10 C -0.2097(6) 0.0183(4) 0.0679(2)
C11 C -0.2790(5) 0.1275(4) 0.0791(2)
C12 C -0.2193(5) 0.1979(4) 0.1347(2)
C13 C -0.0840(4) 0.1585(4) 0.1800(2)
C14 C 0.5235(5) 0.0335(3) 0.3495(2)
C15 C 0.5689(5) 0.0944(4) 0.2853(2)
C16 C 0.2824(5) 0.0065(4) 0.1693(2)
C17 C 0.3521(5) 0.1277(4) 0.1646(2)
H1 H 0.35420 -0.08570 0.30220
H2 H 0.11180 -0.07950 0.22140
H3 H 0.52180 -0.14630 0.43650
H4 H 0.43930 -0.25660 0.52430
H5 H 0.12750 -0.25070 0.54490
H6 H -0.04170 -0.10520 0.47620
H7 H -0.02640 -0.10740 0.10250
H8 H -0.37050 0.16680 0.04250
H9 H -0.25110 -0.03680 0.02280
H10 H -0.27920 0.28120 0.14290
H11 H 0.59920 -0.03110 0.35980
H12 H 0.52040 0.10290 0.38280
H13 H 0.67100 0.14530 0.29530
H14 H 0.58600 0.04370 0.24350
H15 H 0.36470 -0.04790 0.19450
H16 H 0.24530 -0.02400 0.12250
H17 H 0.28330 0.19120 0.14580
H18 H 0.45270 0.11610 0.14650
loop_
_geom_bond_atom_site_label_1
_geom_bond_atom_site_label_2
_geom_bond_distance
_geom_bond_site_symmetry_1
_geom_bond_site_symmetry_2
Fe1 C1 1.756 1_555 1_555
C1 O1 1.174 1_555 1_555
S1 Fe1 2.299 1_555 1_555
S2 Fe1 2.279 1_555 1_555
S3 Fe1 2.315 1_555 1_555
N1 Fe1 2.075 1_555 1_555
N2 Fe1 2.102 1_555 1_555
C2 N1 1.497 1_555 1_555
C3 C2 1.402 1_555 1_555
C4 C3 1.408 1_555 1_555
C5 C4 1.401 1_555 1_555
C6 C5 1.406 1_555 1_555
C7 S1 1.778 1_555 1_555
C8 N2 1.489 1_555 1_555
C9 C8 1.401 1_555 1_555
C10 C9 1.410 1_555 1_555
C11 C10 1.394 1_555 1_555
C12 C11 1.415 1_555 1_555
C13 S3 1.772 1_555 1_555
C14 N1 1.525 1_555 1_555
C15 S2 1.864 1_555 1_555
C16 N2 1.518 1_555 1_555
C17 S2 1.854 1_555 1_555
H1 N1 1.025 1_555 1_555
H2 N2 1.056 1_555 1_555
H3 C3 0.955 1_555 1_555
H4 C4 1.049 1_555 1_555
H5 C5 1.060 1_555 1_555
H6 C6 1.026 1_555 1_555
H7 C9 1.086 1_555 1_555
H8 C11 1.088 1_555 1_555
H9 C10 1.120 1_555 1_555
H10 C12 1.087 1_555 1_555
H11 C14 0.970 1_555 1_555
H12 C14 1.034 1_555 1_555
H13 C15 1.018 1_555 1_555
H14 C15 1.032 1_555 1_555
H15 C16 1.011 1_555 1_555
H16 C16 1.012 1_555 1_555
H17 C17 0.969 1_555 1_555
H18 C17 0.934 1_555 1_555
C2 C7 1.414 1_555 1_555
C6 C7 1.423 1_555 1_555
C8 C13 1.416 1_555 1_555
C12 C13 1.428 1_555 1_555
C14 C15 1.528 1_555 1_555
C16 C17 1.500 1_555 1_555
#END
