
#######################################################################
#
#                 Cambridge Crystallographic Data Centre
#                                CCDC
#
#######################################################################
#
# If this CIF has been generated from an entry in the Cambridge
# Structural Database, then it will include bibliographic, chemical,
# crystal, experimental, refinement or atomic coordinate data resulting
# from the CCDC's data processing and validation procedures.
#
#######################################################################

data_CSD_CIF_MUKJOS
_audit_creation_date 2010-07-30
_audit_creation_method CSD-ConQuest-V1
_database_code_CSD MUKJOS
_database_code_depnum_ccdc_archive 'CCDC 727461'
_chemical_formula_sum 'C40 H36 F20 N1 Ni1'
_chemical_formula_moiety
;
C16 H36 N1 1+,C24 F20 Ni1 1-
;
_journal_coden_Cambridge 1220
_journal_volume 15
_journal_year 2009
_journal_page_first 11020
_journal_name_full 'Chem.-Eur.J. '
loop_
_publ_author_name
"P.J.Alonso"
"A.B.Arauzo"
"M.A.Garcia-Monforte"
"A.Martin"
"B.Menjon"
"C.Rillo"
"M.Tomas"
_chemical_name_systematic
;
(Tetra-n-butylammonium) tetrakis(pentafluorophenyl)-nickel(iii)
;
_cell_volume   3953.016
_exptl_crystal_density_diffrn 1.629
_exptl_crystal_preparation 'thf/diethyl ether'
_diffrn_ambient_temperature 100
#These two values have been output from a single CSD field.
_refine_ls_R_factor_gt 0.0279
_refine_ls_wR_factor_gt 0.0279
_symmetry_cell_setting tetragonal
_symmetry_space_group_name_H-M 'I 41/a'
_symmetry_Int_Tables_number 88
loop_
_symmetry_equiv_pos_site_id
_symmetry_equiv_pos_as_xyz
1 x,y,z
2 -x,1/2-y,z
3 3/4-y,1/4+x,1/4+z
4 1/4+y,1/4-x,1/4+z
5 1/2+x,1/2+y,1/2+z
6 1/2-x,-y,1/2+z
7 1/4-y,3/4+x,3/4+z
8 3/4+y,3/4-x,3/4+z
9 -x,-y,-z
10 x,-1/2+y,-z
11 -3/4+y,-1/4-x,-1/4-z
12 -1/4-y,-1/4+x,-1/4-z
13 -1/2-x,-1/2-y,-1/2-z
14 -1/2+x,y,-1/2-z
15 -1/4+y,-3/4-x,-3/4-z
16 -3/4-y,-3/4+x,-3/4-z
_cell_length_a 17.9784(13)
_cell_length_b 17.9784(13)
_cell_length_c 12.2300(12)
_cell_angle_alpha 90
_cell_angle_beta 90
_cell_angle_gamma 90
_cell_formula_units_Z 4
loop_
_atom_type_symbol
_atom_type_radius_bond
C 0.68
H 0.23
F 0.64
N 0.68
Ni 1.24
loop_
_atom_site_label
_atom_site_type_symbol
_atom_site_fract_x
_atom_site_fract_y
_atom_site_fract_z
Ni1 Ni 1.00000 0.25000 0.12500
C1 C 1.03775(8) 0.35124(9) 0.13660(13)
F1 F 1.04470(6) 0.37021(5) -0.05317(8)
C2 C 1.05505(9) 0.39572(9) 0.04897(13)
F2 F 1.09953(6) 0.50843(5) -0.02773(8)
C3 C 1.08296(9) 0.46686(9) 0.06020(14)
F3 F 1.11898(6) 0.56486(5) 0.17546(9)
C4 C 1.09341(9) 0.49578(9) 0.16320(15)
F4 F 1.08459(6) 0.48230(6) 0.35371(8)
C5 C 1.07607(9) 0.45335(9) 0.25315(14)
F5 F 1.03259(6) 0.34257(5) 0.32872(8)
C6 C 1.04896(8) 0.38254(9) 0.23796(13)
N1 N 1.00000 0.75000 0.37500
C7 C 0.97221(8) 0.68777(8) 0.30159(12)
H1 H 0.93090 0.70710 0.25620
H2 H 1.01290 0.67300 0.25160
C8 C 0.94524(9) 0.61919(9) 0.36219(13)
H3 H 0.98780 0.59500 0.39920
H4 H 0.90890 0.63410 0.41890
C9 C 0.90911(10) 0.56447(9) 0.28427(14)
H5 H 0.94580 0.54900 0.22830
H6 H 0.86720 0.58910 0.24630
C10 C 0.88053(12) 0.49602(10) 0.34415(18)
H7 H 0.85750 0.46190 0.29160
H8 H 0.84360 0.51110 0.39870
H9 H 0.92210 0.47100 0.38070
C1A C 0.96225(8) 0.14876(9) 0.13660(13)
C1N C 1.10124(8) 0.21225(9) 0.11340(13)
C1O C 0.89876(8) 0.28775(9) 0.11340(13)
F1A F 0.95530(6) 0.12979(5) -0.05317(8)
F1N F 1.12021(6) 0.20530(5) 0.30317(8)
F1O F 0.87979(6) 0.29470(5) 0.30317(8)
C2A C 0.94495(9) 0.10428(9) 0.04897(13)
C2N C 1.14572(9) 0.19495(9) 0.20103(13)
C2O C 0.85428(9) 0.30505(9) 0.20103(13)
F2A F 0.90047(6) -0.00843(5) -0.02773(8)
F2N F 1.25843(6) 0.15047(5) 0.27773(8)
F2O F 0.74157(6) 0.34953(5) 0.27773(8)
C3A C 0.91704(9) 0.03314(9) 0.06020(14)
C3N C 1.21686(9) 0.16704(9) 0.18980(14)
C3O C 0.78314(9) 0.33296(9) 0.18980(14)
F3A F 0.88102(6) -0.06486(5) 0.17546(9)
F3N F 1.31486(6) 0.13102(5) 0.07454(9)
F3O F 0.68514(6) 0.36898(5) 0.07454(9)
C4A C 0.90659(9) 0.00422(9) 0.16320(15)
C4N C 1.24578(9) 0.15659(9) 0.08680(15)
C4O C 0.75422(9) 0.34341(9) 0.08680(15)
F4A F 0.91541(6) 0.01770(6) 0.35371(8)
F4N F 1.23230(6) 0.16541(6) -0.10371(8)
F4O F 0.76770(6) 0.33459(6) -0.10371(8)
C5A C 0.92393(9) 0.04665(9) 0.25315(14)
C5N C 1.20335(9) 0.17393(9) -0.00315(14)
C5O C 0.79665(9) 0.32607(9) -0.00315(14)
F5A F 0.96741(6) 0.15743(5) 0.32872(8)
F5N F 1.09257(6) 0.21741(5) -0.07872(8)
F5O F 0.90743(6) 0.28259(5) -0.07872(8)
C6A C 0.95104(8) 0.11746(9) 0.23796(13)
C6N C 1.13254(8) 0.20104(9) 0.01204(13)
C6O C 0.86746(8) 0.29896(9) 0.01204(13)
C7A C 1.02779(8) 0.81223(8) 0.30159(12)
C7J C 0.93777(8) 0.77779(8) 0.44841(12)
C7K C 1.06223(8) 0.72221(8) 0.44841(12)
H1A H 1.06910 0.79290 0.25620
H1J H 0.95710 0.81910 0.49380
H1K H 1.04290 0.68090 0.49380
H2A H 0.98710 0.82700 0.25160
H2J H 0.92300 0.73710 0.49840
H2K H 1.07700 0.76290 0.49840
C8A C 1.05476(9) 0.88081(9) 0.36219(13)
C8J C 0.86919(9) 0.80476(9) 0.38781(13)
C8K C 1.13081(9) 0.69524(9) 0.38781(13)
H3A H 1.01220 0.90500 0.39920
H3J H 0.84500 0.76220 0.35080
H3K H 1.15500 0.73780 0.35080
H4A H 1.09110 0.86590 0.41890
H4J H 0.88410 0.84110 0.33110
H4K H 1.11590 0.65890 0.33110
C9A C 1.09089(10) 0.93553(9) 0.28427(14)
C9J C 0.81447(10) 0.84089(9) 0.46573(14)
C9K C 1.18553(10) 0.65911(9) 0.46573(14)
H5A H 1.05420 0.95100 0.22830
H5J H 0.79900 0.80420 0.52170
H5K H 1.20100 0.69580 0.52170
H6A H 1.13280 0.91090 0.24630
H6J H 0.83910 0.88280 0.50370
H6K H 1.16090 0.61720 0.50370
C10A C 1.11947(12) 1.00398(10) 0.34415(18)
C10J C 0.74602(12) 0.86947(10) 0.40585(18)
C10K C 1.25398(12) 0.63053(10) 0.40585(18)
H7A H 1.14250 1.03810 0.29160
H7J H 0.71190 0.89250 0.45840
H7K H 1.28810 0.60750 0.45840
H8A H 1.15640 0.98890 0.39870
H8J H 0.76110 0.90640 0.35130
H8K H 1.23890 0.59360 0.35130
H9A H 1.07790 1.02900 0.38070
H9J H 0.72100 0.82790 0.36930
H9K H 1.27900 0.67210 0.36930
loop_
_geom_bond_atom_site_label_1
_geom_bond_atom_site_label_2
_geom_bond_distance
_geom_bond_site_symmetry_1
_geom_bond_site_symmetry_2
Ni1 C1 1.948 1_555 1_555
C1 C2 1.373 1_555 1_555
F1 C2 1.344 1_555 1_555
C2 C3 1.381 1_555 1_555
F2 C3 1.343 1_555 1_555
C3 C4 1.376 1_555 1_555
F3 C4 1.333 1_555 1_555
C4 C5 1.375 1_555 1_555
F4 C5 1.344 1_555 1_555
C5 C6 1.376 1_555 1_555
F5 C6 1.355 1_555 1_555
C6 C1 1.376 1_555 1_555
N1 C7 1.519 1_555 1_555
C7 H1 0.990 1_555 1_555
H2 C7 0.990 1_555 1_555
C8 C7 1.518 1_555 1_555
H3 C8 0.990 1_555 1_555
H4 C8 0.990 1_555 1_555
C9 C8 1.516 1_555 1_555
H5 C9 0.990 1_555 1_555
H6 C9 0.990 1_555 1_555
C10 C9 1.521 1_555 1_555
H7 C10 0.980 1_555 1_555
H8 C10 0.979 1_555 1_555
H9 C10 0.980 1_555 1_555
C1A Ni1 1.948 1_555 1_555
C1N Ni1 1.948 1_555 1_555
C1O Ni1 1.948 1_555 1_555
F1A C2A 1.344 1_555 1_555
F1N C2N 1.344 1_555 1_555
F1O C2O 1.344 1_555 1_555
C2A C1A 1.373 1_555 1_555
C2N C1N 1.373 1_555 1_555
C2O C1O 1.373 1_555 1_555
F2A C3A 1.343 1_555 1_555
F2N C3N 1.343 1_555 1_555
F2O C3O 1.343 1_555 1_555
C3A C2A 1.381 1_555 1_555
C3N C2N 1.381 1_555 1_555
C3O C2O 1.381 1_555 1_555
F3A C4A 1.333 1_555 1_555
F3N C4N 1.333 1_555 1_555
F3O C4O 1.333 1_555 1_555
C4A C3A 1.376 1_555 1_555
C4N C3N 1.376 1_555 1_555
C4O C3O 1.376 1_555 1_555
F4A C5A 1.344 1_555 1_555
F4N C5N 1.344 1_555 1_555
F4O C5O 1.344 1_555 1_555
C5A C4A 1.375 1_555 1_555
C5N C4N 1.375 1_555 1_555
C5O C4O 1.375 1_555 1_555
F5A C6A 1.355 1_555 1_555
F5N C6N 1.355 1_555 1_555
F5O C6O 1.355 1_555 1_555
C6A C1A 1.376 1_555 1_555
C6N C1N 1.376 1_555 1_555
C6O C1O 1.376 1_555 1_555
C7A N1 1.519 1_555 1_555
C7J N1 1.519 1_555 1_555
C7K N1 1.519 1_555 1_555
H1A C7A 0.990 1_555 1_555
H1J C7J 0.990 1_555 1_555
H1K C7K 0.990 1_555 1_555
H2A C7A 0.990 1_555 1_555
H2J C7J 0.990 1_555 1_555
H2K C7K 0.990 1_555 1_555
C8A C7A 1.518 1_555 1_555
C8J C7J 1.518 1_555 1_555
C8K C7K 1.518 1_555 1_555
H3A C8A 0.990 1_555 1_555
H3J C8J 0.990 1_555 1_555
H3K C8K 0.990 1_555 1_555
H4A C8A 0.990 1_555 1_555
H4J C8J 0.990 1_555 1_555
H4K C8K 0.990 1_555 1_555
C9A C8A 1.516 1_555 1_555
C9J C8J 1.516 1_555 1_555
C9K C8K 1.516 1_555 1_555
H5A C9A 0.990 1_555 1_555
H5J C9J 0.990 1_555 1_555
H5K C9K 0.990 1_555 1_555
H6A C9A 0.990 1_555 1_555
H6J C9J 0.990 1_555 1_555
H6K C9K 0.990 1_555 1_555
C10A C9A 1.521 1_555 1_555
C10J C9J 1.521 1_555 1_555
C10K C9K 1.521 1_555 1_555
H7A C10A 0.980 1_555 1_555
H7J C10J 0.980 1_555 1_555
H7K C10K 0.980 1_555 1_555
H8A C10A 0.979 1_555 1_555
H8J C10J 0.979 1_555 1_555
H8K C10K 0.979 1_555 1_555
H9A C10A 0.980 1_555 1_555
H9J C10J 0.980 1_555 1_555
H9K C10K 0.980 1_555 1_555
C5A C6A 1.376 1_555 1_555
C5N C6N 1.376 1_555 1_555
C5O C6O 1.376 1_555 1_555
#END
